data;

param n := 12;

param w :=
    1   5
    2   3
    3   7
    4   6
    5   1
    6   2
    7   8
    8   4
    9   7
    10  1
    11  6
    12  2   ;

param p :=
    1   3
    2   2
    3   6
    4   2
    5   5
    6   4
    7   4
    8   3
    9   10
    10  1
    11  8
    12  7   ;

set E := (1,3), (3,12), (3,7), (6,7), (8,6), (10,12);